(set-info :smt-lib-version 2.6)
(set-logic QF_NIA)
(set-info :source |
Generated by: Cristina Borralleras, Daniel Larraz, Albert Oliveras, Enric Rodriguez-Carbonell, Albert Rubio
Generated on: 2017-04-27
Generator: VeryMax
Application: Termination proving
Target solver: barcelogic
|)
(set-info :license "https://creativecommons.org/licenses/by/4.0/")
(set-info :category "industrial")
(set-info :status unsat)
(declare-fun Nl2arg11 () Int)
(declare-fun Nl2arg21 () Int)
(declare-fun Nl2arg31 () Int)
(declare-fun Nl2arg41 () Int)
(declare-fun lam0n0 () Int)
(declare-fun lam0n1 () Int)
(declare-fun lam0n2 () Int)
(declare-fun lam0n3 () Int)
(declare-fun lam0n4 () Int)
(declare-fun lam0n5 () Int)
(declare-fun lam0n6 () Int)
(declare-fun lam0n7 () Int)
(declare-fun lam0n8 () Int)
(declare-fun lam0n9 () Int)
(declare-fun lam0n10 () Int)
(declare-fun Nl2CT1 () Int)
(declare-fun lam1n0 () Int)
(declare-fun lam1n1 () Int)
(declare-fun lam1n2 () Int)
(declare-fun lam1n3 () Int)
(declare-fun lam1n4 () Int)
(declare-fun lam1n5 () Int)
(declare-fun lam1n6 () Int)
(declare-fun lam1n7 () Int)
(declare-fun lam1n8 () Int)
(declare-fun lam1n9 () Int)
(declare-fun lam1n10 () Int)
(declare-fun lam2n0 () Int)
(declare-fun lam2n1 () Int)
(declare-fun lam2n2 () Int)
(declare-fun lam2n3 () Int)
(declare-fun lam2n4 () Int)
(declare-fun lam2n5 () Int)
(declare-fun lam2n6 () Int)
(declare-fun lam2n7 () Int)
(declare-fun lam2n8 () Int)
(declare-fun lam2n9 () Int)
(declare-fun lam2n10 () Int)
(declare-fun lam2n11 () Int)
(declare-fun lam2n12 () Int)
(declare-fun lam3n0 () Int)
(declare-fun lam3n1 () Int)
(declare-fun lam3n2 () Int)
(declare-fun lam3n3 () Int)
(declare-fun lam3n4 () Int)
(declare-fun lam3n5 () Int)
(declare-fun lam3n6 () Int)
(declare-fun lam3n7 () Int)
(declare-fun lam3n8 () Int)
(declare-fun lam3n9 () Int)
(declare-fun lam3n10 () Int)
(declare-fun lam3n11 () Int)
(declare-fun arg1 () Int)
(declare-fun arg3 () Int)
(declare-fun arg4 () Int)
(declare-fun undef1 () Int)
(declare-fun undef5 () Int)
(declare-fun undef25 () Int)
(declare-fun undef2 () Int)
(declare-fun undef26 () Int)
(declare-fun arg2 () Int)
(declare-fun lam4n0 () Int)
(declare-fun lam4n1 () Int)
(declare-fun lam4n2 () Int)
(declare-fun lam4n3 () Int)
(declare-fun lam4n4 () Int)
(declare-fun lam5n0 () Int)
(declare-fun lam5n1 () Int)
(declare-fun lam5n2 () Int)
(declare-fun lam5n3 () Int)
(declare-fun lam5n4 () Int)
(assert ( and ( <= ( - 4 ) Nl2arg11 ) ( <= Nl2arg11 4 ) ( <= ( - 4 ) Nl2arg21 ) ( <= Nl2arg21 4 ) ( <= ( - 4 ) Nl2arg31 ) ( <= Nl2arg31 4 ) ( <= ( - 4 ) Nl2arg41 ) ( <= Nl2arg41 4 ) ))
(assert ( or ( and ( >= lam0n0 0 ) ( >= lam0n1 0 ) ( >= lam0n2 0 ) ( >= lam0n3 0 ) ( >= lam0n4 0 ) ( >= lam0n5 0 ) ( >= lam0n6 0 ) ( >= lam0n7 0 ) ( >= lam0n8 0 ) ( >= lam0n9 0 ) ( >= lam0n10 0 ) ( > ( + ( * 1 lam0n0 ) ( * 1 lam0n1 ) ( * 1 lam0n2 ) ( * 1 lam0n3 ) ( * 1 lam0n4 ) ( * 3 lam0n8 ) ( * 7 lam0n9 ) ( * Nl2CT1 lam0n10 ) ( - 1 ) ) 0 ) ( = ( + ( * ( - 1 ) lam0n0 ) ( * ( - 1 ) lam0n5 ) ( * Nl2arg11 lam0n10 ) ) 0 ) ( = ( + ( * ( - 1 ) lam0n1 ) ( * ( - 1 ) lam0n6 ) ( * Nl2arg21 lam0n10 ) ) 0 ) ( = ( + ( * ( - 1 ) lam0n2 ) ( * 1 lam0n8 ) ( * Nl2arg31 lam0n10 ) ) 0 ) ( = ( + ( * ( - 1 ) lam0n7 ) ( * ( - 1 ) lam0n8 ) ( * Nl2arg41 lam0n10 ) ) 0 ) ( = ( * ( - 1 ) lam0n3 ) 0 ) ( = ( + ( * ( - 1 ) lam0n4 ) ( * 1 lam0n5 ) ( * 1 lam0n6 ) ) 0 ) ( = ( * ( - 1 ) lam0n9 ) 0 ) ) ( and ( >= lam1n0 0 ) ( >= lam1n1 0 ) ( >= lam1n2 0 ) ( >= lam1n3 0 ) ( >= lam1n4 0 ) ( >= lam1n5 0 ) ( >= lam1n6 0 ) ( >= lam1n7 0 ) ( >= lam1n8 0 ) ( >= lam1n9 0 ) ( >= lam1n10 0 ) ( > ( + ( * 1 lam1n0 ) ( * 1 lam1n1 ) ( * 1 lam1n2 ) ( * 1 lam1n3 ) ( * 1 lam1n4 ) ( * 3 lam1n8 ) ( * 7 lam1n9 ) ( * Nl2CT1 lam1n10 ) ( - 1 ( + ( + ( + Nl2CT1 ( * Nl2arg11 0 ) ) ( * Nl2arg21 0 ) ) ( * Nl2arg31 4 ) ) ) ) 0 ) ( = ( + ( * ( - 1 ) lam1n0 ) ( * ( - 1 ) lam1n5 ) ( * Nl2arg11 lam1n10 ) ) 0 ) ( = ( + ( * ( - 1 ) lam1n1 ) ( * ( - 1 ) lam1n6 ) ( * Nl2arg21 lam1n10 ) ) 0 ) ( = ( + ( * ( - 1 ) lam1n2 ) ( * 1 lam1n8 ) ( * Nl2arg31 lam1n10 ) ( - ( + 0 ( * Nl2arg31 1 ) ) ) ) 0 ) ( = ( + ( * ( - 1 ) lam1n7 ) ( * ( - 1 ) lam1n8 ) ( * Nl2arg41 lam1n10 ) ( - ( + 0 Nl2arg41 ) ) ) 0 ) ( = ( * ( - 1 ) lam1n3 ) 0 ) ( = ( + ( * ( - 1 ) lam1n4 ) ( * 1 lam1n5 ) ( * 1 lam1n6 ) ( - ( + 0 ( * Nl2arg11 1 ) ) ) ) 0 ) ( = ( + ( * ( - 1 ) lam1n9 ) ( - ( + 0 ( * Nl2arg21 1 ) ) ) ) 0 ) ) ))
(assert ( or ( and ( not ( <= ( + arg1 arg3 ( * ( - 1 ) arg4 ) ) 0 ) ) ( <= ( + 1 ( * ( - 1 ) undef1 ) ) 0 ) ( not ( <= undef5 0 ) ) ( <= ( + 1 ( * ( - 1 ) undef25 ) ) 0 ) ( <= ( + ( - 1 ) undef2 ( * ( - 1 ) undef25 ) ) 0 ) ( not ( <= ( + 1 arg3 ( * ( - 1 ) arg4 ) ) 0 ) ) ( <= ( + undef1 ( * ( - 1 ) undef25 ) ) 0 ) ( <= ( * ( - 1 ) undef26 ) 0 ) ( <= ( + 2 ( * ( - 1 ) undef2 ) ) 0 ) ( = ( + ( - 1 ) arg3 ) 0 ) ( = ( + arg1 ( * ( - 1 ) undef1 ) ) 0 ) ( = ( + arg2 ( * ( - 1 ) undef2 ) ) 0 ) ( = ( + arg4 ( * ( - 1 ) undef26 ) ) 0 ) ( <= ( + Nl2CT1 ( * ( + 0 Nl2arg11 ) arg1 ) ( * ( + 0 Nl2arg21 ) arg2 ) ( * ( + 0 Nl2arg31 ) arg3 ) ( * ( + 0 Nl2arg41 ) arg4 ) ) 0 ) ) ( and ( <= ( + 1 ( * ( - 1 ) undef1 ) ) 0 ) ( not ( <= undef5 0 ) ) ( <= ( + 1 ( * ( - 1 ) undef25 ) ) 0 ) ( <= ( + ( - 1 ) undef2 ( * ( - 1 ) undef25 ) ) 0 ) ( <= ( + undef1 ( * ( - 1 ) undef25 ) ) 0 ) ( <= ( * ( - 1 ) undef26 ) 0 ) ( not ( <= ( + ( - 1 ) ( * ( - 1 ) arg3 ) arg4 ) 0 ) ) ( <= ( + 2 ( * ( - 1 ) undef2 ) ) 0 ) ( = ( + ( - 1 ) arg3 ) 0 ) ( = ( + arg1 ( * ( - 1 ) undef1 ) ) 0 ) ( = ( + arg2 ( * ( - 1 ) undef2 ) ) 0 ) ( = ( + arg4 ( * ( - 1 ) undef26 ) ) 0 ) ( <= ( + Nl2CT1 ( * ( + 0 Nl2arg11 ) arg1 ) ( * ( + 0 Nl2arg21 ) arg2 ) ( * ( + 0 Nl2arg31 ) arg3 ) ( * ( + 0 Nl2arg41 ) arg4 ) ) 0 ) ) ))
(assert ( or ( or ( and ( >= lam4n0 0 ) ( >= lam4n1 0 ) ( >= lam4n2 0 ) ( >= lam4n3 0 ) ( >= lam4n4 0 ) ( > ( + ( * 1 lam4n0 ) ( * 1 lam4n1 ) ( * Nl2CT1 lam4n4 ) ( - 1 ) ) 0 ) ( = ( + ( * ( - 1 ) lam4n0 ) ( * Nl2arg11 lam4n4 ) ) 0 ) ( = ( + ( * ( - 1 ) lam4n1 ) ( * Nl2arg21 lam4n4 ) ) 0 ) ( = ( + ( * ( - 1 ) lam4n2 ) ( * Nl2arg31 lam4n4 ) ) 0 ) ( = ( + ( * 1 lam4n2 ) ( * Nl2arg41 lam4n4 ) ) 0 ) ( = ( * ( - 1 ) lam4n3 ) 0 ) ) ( and ( >= lam5n0 0 ) ( >= lam5n1 0 ) ( >= lam5n2 0 ) ( >= lam5n3 0 ) ( >= lam5n4 0 ) ( > ( + ( * 1 lam5n0 ) ( * 1 lam5n1 ) ( * Nl2CT1 lam5n4 ) 1 ) 0 ) ( = ( + ( * ( - 1 ) lam5n0 ) ( * Nl2arg11 lam5n4 ) ) 0 ) ( = ( + ( * ( - 1 ) lam5n1 ) ( * Nl2arg21 lam5n4 ) ) 0 ) ( = ( + ( * ( - 1 ) lam5n2 ) ( * Nl2arg31 lam5n4 ) ) 0 ) ( = ( + ( * 1 lam5n2 ) ( * Nl2arg41 lam5n4 ) ) 0 ) ( = ( + ( * ( - 1 ) lam5n3 ) ( - 1 ) ) 0 ) ) ) ( and ( and ( and ( >= lam2n0 0 ) ( >= lam2n1 0 ) ( >= lam2n2 0 ) ( >= lam2n3 0 ) ( >= lam2n4 0 ) ( >= lam2n5 0 ) ( >= lam2n6 0 ) ( >= lam2n7 0 ) ( >= lam2n8 0 ) ( > ( + ( * 1 lam2n0 ) ( * 1 lam2n1 ) ( * 1 lam2n2 ) ( * 1 lam2n3 ) ( * ( - 1 ) lam2n4 ) ( * 2 lam2n8 ) ( * ( - 1 ) lam2n9 ) ( - 1 Nl2CT1 ) ) 0 ) ( = ( + ( * ( - 1 ) lam2n0 ) ( * 1 lam2n10 ) ( - ( + 0 Nl2arg11 ) ) ) 0 ) ( = ( + ( * 1 lam2n11 ) ( - ( + 0 Nl2arg21 ) ) ) 0 ) ( = ( + ( * ( - 1 ) lam2n0 ) ( * ( - 1 ) lam2n5 ) ( * 1 lam2n9 ) ( - ( + 0 Nl2arg31 ) ) ) 0 ) ( = ( + ( * 1 lam2n0 ) ( * 1 lam2n5 ) ( * 1 lam2n12 ) ( - ( + 0 Nl2arg41 ) ) ) 0 ) ( = ( + ( * ( - 1 ) lam2n1 ) ( * 1 lam2n6 ) ( * ( - 1 ) lam2n10 ) ) 0 ) ( = ( + ( * 1 lam2n4 ) ( * ( - 1 ) lam2n8 ) ( * ( - 1 ) lam2n11 ) ) 0 ) ( = ( * ( - 1 ) lam2n2 ) 0 ) ( = ( + ( * ( - 1 ) lam2n3 ) ( * ( - 1 ) lam2n4 ) ( * ( - 1 ) lam2n6 ) ) 0 ) ( = ( + ( * ( - 1 ) lam2n7 ) ( * ( - 1 ) lam2n12 ) ) 0 ) ) ( and ( >= lam3n0 0 ) ( >= lam3n1 0 ) ( >= lam3n2 0 ) ( >= lam3n3 0 ) ( >= lam3n4 0 ) ( >= lam3n5 0 ) ( >= lam3n6 0 ) ( >= lam3n7 0 ) ( > ( + ( * 1 lam3n0 ) ( * 1 lam3n1 ) ( * 1 lam3n2 ) ( * ( - 1 ) lam3n3 ) ( * 2 lam3n6 ) ( * 2 lam3n7 ) ( * ( - 1 ) lam3n8 ) ( - 1 Nl2CT1 ) ) 0 ) ( = ( + ( * 1 lam3n9 ) ( - ( + 0 Nl2arg11 ) ) ) 0 ) ( = ( + ( * 1 lam3n10 ) ( - ( + 0 Nl2arg21 ) ) ) 0 ) ( = ( + ( * 1 lam3n6 ) ( * 1 lam3n8 ) ( - ( + 0 Nl2arg31 ) ) ) 0 ) ( = ( + ( * ( - 1 ) lam3n6 ) ( * 1 lam3n11 ) ( - ( + 0 Nl2arg41 ) ) ) 0 ) ( = ( + ( * ( - 1 ) lam3n0 ) ( * 1 lam3n4 ) ( * ( - 1 ) lam3n9 ) ) 0 ) ( = ( + ( * 1 lam3n3 ) ( * ( - 1 ) lam3n7 ) ( * ( - 1 ) lam3n10 ) ) 0 ) ( = ( * ( - 1 ) lam3n1 ) 0 ) ( = ( + ( * ( - 1 ) lam3n2 ) ( * ( - 1 ) lam3n3 ) ( * ( - 1 ) lam3n4 ) ) 0 ) ( = ( + ( * ( - 1 ) lam3n5 ) ( * ( - 1 ) lam3n11 ) ) 0 ) ) ) ( and ( >= lam0n0 0 ) ( >= lam0n1 0 ) ( >= lam0n2 0 ) ( >= lam0n3 0 ) ( >= lam0n4 0 ) ( >= lam0n5 0 ) ( >= lam0n6 0 ) ( >= lam0n7 0 ) ( >= lam0n8 0 ) ( >= lam0n9 0 ) ( >= lam0n10 0 ) ( > ( + ( * 1 lam0n0 ) ( * 1 lam0n1 ) ( * 1 lam0n2 ) ( * 1 lam0n3 ) ( * 1 lam0n4 ) ( * 3 lam0n8 ) ( * 7 lam0n9 ) ( * Nl2CT1 lam0n10 ) ( - 1 ) ) 0 ) ( = ( + ( * ( - 1 ) lam0n0 ) ( * ( - 1 ) lam0n5 ) ( * Nl2arg11 lam0n10 ) ) 0 ) ( = ( + ( * ( - 1 ) lam0n1 ) ( * ( - 1 ) lam0n6 ) ( * Nl2arg21 lam0n10 ) ) 0 ) ( = ( + ( * ( - 1 ) lam0n2 ) ( * 1 lam0n8 ) ( * Nl2arg31 lam0n10 ) ) 0 ) ( = ( + ( * ( - 1 ) lam0n7 ) ( * ( - 1 ) lam0n8 ) ( * Nl2arg41 lam0n10 ) ) 0 ) ( = ( * ( - 1 ) lam0n3 ) 0 ) ( = ( + ( * ( - 1 ) lam0n4 ) ( * 1 lam0n5 ) ( * 1 lam0n6 ) ) 0 ) ( = ( * ( - 1 ) lam0n9 ) 0 ) ) ) ))
(check-sat)
(exit)
